p cnf 50 850
1 2 3 4 5 0
6 7 8 9 10 0
11 12 13 14 15 0
16 17 18 19 20 0
21 22 23 24 25 0
26 27 28 29 30 0
31 32 33 34 35 0
36 37 38 39 40 0
41 42 43 44 45 0
46 47 48 49 50 0
1 -2 -3 -4 -5 -6 -7 -8 -9 -10 0
-1 2 -3 -4 -5 -6 -7 -8 -9 -10 0
-1 -2 3 -4 -5 -6 -7 -8 -9 -10 0
-1 -2 -3 4 -5 -6 -7 -8 -9 -10 0
-1 -2 -3 -4 5 -6 -7 -8 -9 -10 0
6 -7 -8 -9 -10 -11 -12 -13 -14 -15 0
-6 7 -8 -9 -10 -11 -12 -13 -14 -15 0
-6 -7 8 -9 -10 -11 -12 -13 -14 -15 0
-6 -7 -8 9 -10 -11 -12 -13 -14 -15 0
-6 -7 -8 -9 10 -11 -12 -13 -14 -15 0
11 -12 -13 -14 -15 -16 -17 -18 -19 -20 0
-11 12 -13 -14 -15 -16 -17 -18 -19 -20 0
-11 -12 13 -14 -15 -16 -17 -18 -19 -20 0
-11 -12 -13 14 -15 -16 -17 -18 -19 -20 0
-11 -12 -13 -14 15 -16 -17 -18 -19 -20 0
16 -17 -18 -19 -20 -21 -22 -23 -24 -25 0
-16 17 -18 -19 -20 -21 -22 -23 -24 -25 0
-16 -17 18 -19 -20 -21 -22 -23 -24 -25 0
-16 -17 -18 19 -20 -21 -22 -23 -24 -25 0
-16 -17 -18 -19 20 -21 -22 -23 -24 -25 0
21 -22 -23 -24 -25 -26 -27 -28 -29 -30 0
-21 22 -23 -24 -25 -26 -27 -28 -29 -30 0
-21 -22 23 -24 -25 -26 -27 -28 -29 -30 0
-21 -22 -23 24 -25 -26 -27 -28 -29 -30 0
-21 -22 -23 -24 25 -26 -27 -28 -29 -30 0
26 -27 -28 -29 -30 -31 -32 -33 -34 -35 0
-26 27 -28 -29 -30 -31 -32 -33 -34 -35 0
-26 -27 28 -29 -30 -31 -32 -33 -34 -35 0
-26 -27 -28 29 -30 -31 -32 -33 -34 -35 0
-26 -27 -28 -29 30 -31 -32 -33 -34 -35 0
31 -32 -33 -34 -35 -36 -37 -38 -39 -40 0
-31 32 -33 -34 -35 -36 -37 -38 -39 -40 0
-31 -32 33 -34 -35 -36 -37 -38 -39 -40 0
-31 -32 -33 34 -35 -36 -37 -38 -39 -40 0
-31 -32 -33 -34 35 -36 -37 -38 -39 -40 0
36 -37 -38 -39 -40 -41 -42 -43 -44 -45 0
-36 37 -38 -39 -40 -41 -42 -43 -44 -45 0
-36 -37 38 -39 -40 -41 -42 -43 -44 -45 0
-36 -37 -38 39 -40 -41 -42 -43 -44 -45 0
-36 -37 -38 -39 40 -41 -42 -43 -44 -45 0
41 -42 -43 -44 -45 -46 -47 -48 -49 -50 0
-41 42 -43 -44 -45 -46 -47 -48 -49 -50 0
-41 -42 43 -44 -45 -46 -47 -48 -49 -50 0
-41 -42 -43 44 -45 -46 -47 -48 -49 -50 0
-41 -42 -43 -44 45 -46 -47 -48 -49 -50 0
46 -47 -48 -49 -50 -51 -52 -53 -54 -55 0
-46 47 -48 -49 -50 -51 -52 -53 -54 -55 0
-46 -47 48 -49 -50 -51 -52 -53 -54 -55 0
-46 -47 -48 49 -50 -51 -52 -53 -54 -55 0
-46 -47 -48 -49 50 -51 -52 -53 -54 -55 0
-1 -2 -3 -4 0
-6 -7 -8 -9 -10 0
-11 -12 -13 -14 -15 0
-16 -17 -18 -19 -20 0
-21 -22 -23 -24 -25 0
-26 -27 -28 -29 -30 0
-31 -32 -33 -34 -35 0
-36 -37 -38 -39 -40 0
-43 -44 0
-48 -49 0
-1 -10 0
-1 -15 0
-1 -20 0
-1 -22 0
-1 -23 0
-1 -24 0
-1 -30 0
-1 -35 0
-1 -40 0
-1 -45 0
-1 -50 0
-2 -6 0
-2 -11 0
-2 -16 0
-2 -23 0
-2 -24 0
-2 -25 0
-2 -26 0
-2 -31 0
-2 -36 0
-2 -41 0
-2 -46 0
-3 -6 0
-3 -7 0
-3 -10 0
-3 -11 0
-3 -12 0
-3 -15 0
-3 -16 0
-3 -17 0
-3 -20 0
-3 -24 0
-3 -26 0
-3 -27 0
-3 -30 0
-3 -31 0
-3 -32 0
-3 -35 0
-3 -36 0
-3 -37 0
-3 -40 0
-3 -41 0
-3 -42 0
-3 -45 0
-3 -46 0
-3 -47 0
-3 -50 0
-4 -10 0
-4 -15 0
-4 -20 0
-4 -21 0
-4 -22 0
-4 -23 0
-4 -30 0
-4 -35 0
-4 -40 0
-4 -45 0
-4 -50 0
-5 -7 0
-5 -12 0
-5 -17 0
-5 -21 0
-5 -23 0
-5 -24 0
-5 -27 0
-5 -32 0
-5 -37 0
-5 -42 0
-5 -47 0
-6 -5 0
-6 -15 0
-6 -20 0
-6 -22 0
-6 -23 0
-6 -24 0
-6 -27 0
-6 -28 0
-6 -29 0
-6 -35 0
-6 -40 0
-6 -45 0
-6 -50 0
-7 -1 0
-7 -11 0
-7 -16 0
-7 -23 0
-7 -24 0
-7 -25 0
-7 -28 0
-7 -29 0
-7 -30 0
-7 -31 0
-7 -36 0
-7 -41 0
-7 -46 0
-8 -1 0
-8 -2 0
-8 -5 0
-8 -11 0
-8 -12 0
-8 -15 0
-8 -16 0
-8 -17 0
-8 -20 0
-8 -24 0
-8 -29 0
-8 -31 0
-8 -32 0
-8 -35 0
-8 -36 0
-8 -37 0
-8 -40 0
-8 -41 0
-8 -42 0
-8 -45 0
-8 -46 0
-8 -47 0
-8 -50 0
-9 -5 0
-9 -15 0
-9 -20 0
-9 -21 0
-9 -22 0
-9 -23 0
-9 -26 0
-9 -27 0
-9 -28 0
-9 -35 0
-9 -40 0
-9 -45 0
-9 -50 0
-10 -2 0
-10 -12 0
-10 -17 0
-10 -21 0
-10 -23 0
-10 -24 0
-10 -26 0
-10 -28 0
-10 -29 0
-10 -32 0
-10 -37 0
-10 -42 0
-10 -47 0
-11 -2 0
-11 -3 0
-11 -4 0
-11 -10 0
-11 -20 0
-11 -25 0
-11 -30 0
-11 -35 0
-11 -40 0
-11 -45 0
-11 -50 0
-12 -3 0
-12 -4 0
-12 -5 0
-12 -6 0
-12 -16 0
-12 -21 0
-12 -26 0
-12 -31 0
-12 -36 0
-12 -41 0
-12 -46 0
-13 -4 0
-13 -6 0
-13 -7 0
-13 -10 0
-13 -16 0
-13 -17 0
-13 -20 0
-13 -21 0
-13 -22 0
-13 -25 0
-13 -26 0
-13 -27 0
-13 -30 0
-13 -31 0
-13 -32 0
-13 -35 0
-13 -36 0
-13 -37 0
-13 -40 0
-13 -41 0
-13 -42 0
-13 -45 0
-13 -46 0
-13 -47 0
-13 -50 0
-14 -1 0
-14 -2 0
-14 -3 0
-14 -10 0
-14 -20 0
-14 -25 0
-14 -30 0
-14 -35 0
-14 -40 0
-14 -45 0
-14 -50 0
-15 -1 0
-15 -3 0
-15 -4 0
-15 -7 0
-15 -17 0
-15 -22 0
-15 -27 0
-15 -32 0
-15 -37 0
-15 -42 0
-15 -47 0
-16 -2 0
-16 -3 0
-16 -4 0
-16 -10 0
-16 -12 0
-16 -13 0
-16 -14 0
-16 -22 0
-16 -23 0
-16 -24 0
-16 -30 0
-16 -35 0
-16 -37 0
-16 -38 0
-16 -39 0
-16 -45 0
-16 -50 0
-17 -3 0
-17 -4 0
-17 -5 0
-17 -6 0
-17 -13 0
-17 -14 0
-17 -15 0
-17 -23 0
-17 -24 0
-17 -25 0
-17 -26 0
-17 -31 0
-17 -38 0
-17 -39 0
-17 -40 0
-17 -41 0
-17 -46 0
-18 -4 0
-18 -6 0
-18 -7 0
-18 -10 0
-18 -14 0
-18 -24 0
-18 -26 0
-18 -27 0
-18 -30 0
-18 -31 0
-18 -32 0
-18 -35 0
-18 -39 0
-18 -41 0
-18 -42 0
-18 -45 0
-18 -46 0
-18 -47 0
-18 -50 0
-19 -1 0
-19 -2 0
-19 -3 0
-19 -10 0
-19 -11 0
-19 -12 0
-19 -13 0
-19 -21 0
-19 -22 0
-19 -23 0
-19 -30 0
-19 -35 0
-19 -36 0
-19 -37 0
-19 -38 0
-19 -45 0
-19 -50 0
-20 -1 0
-20 -3 0
-20 -4 0
-20 -7 0
-20 -11 0
-20 -13 0
-20 -14 0
-20 -21 0
-20 -23 0
-20 -24 0
-20 -27 0
-20 -32 0
-20 -36 0
-20 -38 0
-20 -39 0
-20 -42 0
-20 -47 0
-21 -5 0
-21 -10 0
-21 -12 0
-21 -13 0
-21 -14 0
-21 -20 0
-21 -30 0
-21 -32 0
-21 -33 0
-21 -34 0
-21 -40 0
-21 -45 0
-21 -50 0
-22 -1 0
-22 -6 0
-22 -13 0
-22 -14 0
-22 -15 0
-22 -16 0
-22 -26 0
-22 -33 0
-22 -34 0
-22 -35 0
-22 -36 0
-22 -41 0
-22 -46 0
-23 -1 0
-23 -2 0
-23 -5 0
-23 -6 0
-23 -7 0
-23 -10 0
-23 -14 0
-23 -16 0
-23 -17 0
-23 -20 0
-23 -26 0
-23 -27 0
-23 -30 0
-23 -34 0
-23 -36 0
-23 -37 0
-23 -40 0
-23 -41 0
-23 -42 0
-23 -45 0
-23 -46 0
-23 -47 0
-23 -50 0
-24 -5 0
-24 -10 0
-24 -11 0
-24 -12 0
-24 -13 0
-24 -20 0
-24 -30 0
-24 -31 0
-24 -32 0
-24 -33 0
-24 -40 0
-24 -45 0
-24 -50 0
-25 -2 0
-25 -7 0
-25 -11 0
-25 -13 0
-25 -14 0
-25 -17 0
-25 -27 0
-25 -31 0
-25 -33 0
-25 -34 0
-25 -37 0
-25 -42 0
-25 -47 0
-26 -5 0
-26 -7 0
-26 -8 0
-26 -9 0
-26 -12 0
-26 -13 0
-26 -14 0
-26 -20 0
-26 -25 0
-26 -32 0
-26 -33 0
-26 -34 0
-26 -37 0
-26 -38 0
-26 -39 0
-26 -45 0
-26 -50 0
-27 -1 0
-27 -8 0
-27 -9 0
-27 -10 0
-27 -13 0
-27 -14 0
-27 -15 0
-27 -16 0
-27 -21 0
-27 -33 0
-27 -34 0
-27 -35 0
-27 -38 0
-27 -39 0
-27 -40 0
-27 -41 0
-27 -46 0
-28 -1 0
-28 -2 0
-28 -5 0
-28 -9 0
-28 -14 0
-28 -16 0
-28 -17 0
-28 -20 0
-28 -21 0
-28 -22 0
-28 -25 0
-28 -34 0
-28 -39 0
-28 -41 0
-28 -42 0
-28 -45 0
-28 -46 0
-28 -47 0
-28 -50 0
-29 -5 0
-29 -6 0
-29 -7 0
-29 -8 0
-29 -11 0
-29 -12 0
-29 -13 0
-29 -20 0
-29 -25 0
-29 -31 0
-29 -32 0
-29 -33 0
-29 -36 0
-29 -37 0
-29 -38 0
-29 -45 0
-29 -50 0
-30 -2 0
-30 -6 0
-30 -8 0
-30 -9 0
-30 -11 0
-30 -13 0
-30 -14 0
-30 -17 0
-30 -22 0
-30 -31 0
-30 -33 0
-30 -34 0
-30 -36 0
-30 -38 0
-30 -39 0
-30 -42 0
-30 -47 0
-31 -5 0
-31 -10 0
-31 -15 0
-31 -20 0
-31 -25 0
-31 -27 0
-31 -28 0
-31 -29 0
-31 -37 0
-31 -38 0
-31 -39 0
-31 -42 0
-31 -43 0
-31 -44 0
-31 -47 0
-31 -48 0
-31 -49 0
-32 -1 0
-32 -6 0
-32 -11 0
-32 -16 0
-32 -21 0
-32 -28 0
-32 -29 0
-32 -30 0
-32 -38 0
-32 -39 0
-32 -40 0
-32 -43 0
-32 -44 0
-32 -45 0
-32 -48 0
-32 -49 0
-32 -50 0
-33 -1 0
-33 -2 0
-33 -5 0
-33 -6 0
-33 -7 0
-33 -10 0
-33 -11 0
-33 -12 0
-33 -15 0
-33 -16 0
-33 -17 0
-33 -20 0
-33 -21 0
-33 -22 0
-33 -25 0
-33 -29 0
-33 -39 0
-33 -44 0
-33 -49 0
-34 -5 0
-34 -10 0
-34 -15 0
-34 -20 0
-34 -25 0
-34 -26 0
-34 -27 0
-34 -28 0
-34 -36 0
-34 -37 0
-34 -38 0
-34 -41 0
-34 -42 0
-34 -43 0
-34 -46 0
-34 -47 0
-34 -48 0
-35 -2 0
-35 -7 0
-35 -12 0
-35 -17 0
-35 -22 0
-35 -26 0
-35 -28 0
-35 -29 0
-35 -36 0
-35 -38 0
-35 -39 0
-35 -41 0
-35 -43 0
-35 -44 0
-35 -46 0
-35 -48 0
-35 -49 0
-36 -2 0
-36 -3 0
-36 -4 0
-36 -10 0
-36 -12 0
-36 -13 0
-36 -14 0
-36 -17 0
-36 -18 0
-36 -19 0
-36 -25 0
-36 -27 0
-36 -28 0
-36 -29 0
-36 -32 0
-36 -33 0
-36 -34 0
-36 -45 0
-36 -47 0
-36 -48 0
-36 -49 0
-37 -3 0
-37 -4 0
-37 -5 0
-37 -6 0
-37 -13 0
-37 -14 0
-37 -15 0
-37 -18 0
-37 -19 0
-37 -20 0
-37 -21 0
-37 -28 0
-37 -29 0
-37 -30 0
-37 -33 0
-37 -34 0
-37 -35 0
-37 -41 0
-37 -48 0
-37 -49 0
-37 -50 0
-38 -4 0
-38 -6 0
-38 -7 0
-38 -10 0
-38 -14 0
-38 -19 0
-38 -21 0
-38 -22 0
-38 -25 0
-38 -29 0
-38 -34 0
-38 -41 0
-38 -42 0
-38 -45 0
-38 -49 0
-39 -1 0
-39 -2 0
-39 -3 0
-39 -10 0
-39 -11 0
-39 -12 0
-39 -13 0
-39 -16 0
-39 -17 0
-39 -18 0
-39 -25 0
-39 -26 0
-39 -27 0
-39 -28 0
-39 -31 0
-39 -32 0
-39 -33 0
-39 -45 0
-39 -46 0
-39 -47 0
-39 -48 0
-40 -1 0
-40 -3 0
-40 -4 0
-40 -7 0
-40 -11 0
-40 -13 0
-40 -14 0
-40 -16 0
-40 -18 0
-40 -19 0
-40 -22 0
-40 -26 0
-40 -28 0
-40 -29 0
-40 -31 0
-40 -33 0
-40 -34 0
-40 -42 0
-40 -46 0
-40 -48 0
-40 -49 0
-41 -5 0
-41 -10 0
-41 -12 0
-41 -13 0
-41 -14 0
-41 -20 0
-41 -25 0
-41 -30 0
-41 -35 0
-41 -40 0
-41 -50 0
-42 -1 0
-42 -6 0
-42 -13 0
-42 -14 0
-42 -15 0
-42 -16 0
-42 -21 0
-42 -26 0
-42 -31 0
-42 -36 0
-42 -46 0
-43 -1 0
-43 -2 0
-43 -5 0
-43 -6 0
-43 -7 0
-43 -10 0
-43 -14 0
-43 -16 0
-43 -17 0
-43 -20 0
-43 -21 0
-43 -22 0
-43 -25 0
-43 -26 0
-43 -27 0
-43 -30 0
-43 -31 0
-43 -32 0
-43 -35 0
-43 -36 0
-43 -37 0
-43 -40 0
-43 -46 0
-43 -47 0
-43 -50 0
-44 -5 0
-44 -10 0
-44 -11 0
-44 -12 0
-44 -13 0
-44 -20 0
-44 -25 0
-44 -30 0
-44 -35 0
-44 -40 0
-44 -50 0
-45 -2 0
-45 -7 0
-45 -11 0
-45 -13 0
-45 -14 0
-45 -17 0
-45 -22 0
-45 -27 0
-45 -32 0
-45 -37 0
-45 -47 0
-46 -5 0
-46 -10 0
-46 -15 0
-46 -20 0
-46 -25 0
-46 -30 0
-46 -35 0
-46 -40 0
-46 -45 0
-47 -1 0
-47 -6 0
-47 -11 0
-47 -16 0
-47 -21 0
-47 -26 0
-47 -31 0
-47 -36 0
-47 -41 0
-48 -1 0
-48 -2 0
-48 -5 0
-48 -6 0
-48 -7 0
-48 -10 0
-48 -11 0
-48 -12 0
-48 -15 0
-48 -16 0
-48 -17 0
-48 -20 0
-48 -21 0
-48 -22 0
-48 -25 0
-48 -26 0
-48 -27 0
-48 -30 0
-48 -31 0
-48 -32 0
-48 -35 0
-48 -36 0
-48 -37 0
-48 -40 0
-48 -41 0
-48 -42 0
-48 -45 0
-49 -5 0
-49 -10 0
-49 -15 0
-49 -20 0
-49 -25 0
-49 -30 0
-49 -35 0
-49 -40 0
-49 -45 0
-50 -2 0
-50 -7 0
-50 -12 0
-50 -17 0
-50 -22 0
-50 -27 0
-50 -32 0
-50 -37 0
-50 -42 0
